letting db be sequence(
record {itemset = {1,2,4,6,8,10,12,14,16,18,20,22,24,26,28,30,32,34,36,39,41,43,44,46,48,50,52,54,56,58,60,62,64,66}, class = 1},
record {itemset = {1,3,5,7,9,11,12,15,16,18,21,22,24,26,28,30,32,34,36,39,41,42,44,46,48,50,53,55,56,58,60,62,64,66}, class = 1},
record {itemset = {1,3,5,7,9,11,13,15,17,18,21,22,24,27,28,30,32,34,36,39,40,42,44,46,48,50,53,55,56,58,60,62,64,66}, class = 1},
record {itemset = {1,3,4,6,8,10,12,15,17,18,20,22,24,27,28,30,32,34,36,39,41,43,44,46,48,50,53,55,57,59,61,63,65,66}, class = 1},
record {itemset = {1,3,4,6,8,10,12,15,17,18,20,22,24,27,28,30,32,34,36,39,41,42,44,46,48,50,53,54,56,58,60,62,64,66}, class = 1},
record {itemset = {1,3,5,6,8,10,12,15,17,18,21,22,24,27,29,30,32,34,36,39,40,42,44,46,48,50,53,55,57,58,60,62,64,66}, class = 1},
record {itemset = {1,2,4,6,8,10,12,15,17,18,20,22,24,27,28,30,32,34,36,39,41,43,44,46,48,50,53,55,57,59,61,63,64,66}, class = 1},
record {itemset = {1,3,5,6,8,10,12,15,16,19,20,22,24,26,29,30,32,34,36,39,41,43,45,46,48,50,53,54,56,58,60,62,64,66}, class = 1},
record {itemset = {1,2,4,6,8,10,12,15,17,19,21,22,24,27,29,30,33,34,36,39,41,43,44,46,48,50,53,55,57,59,61,63,65,66}, class = 1},
record {itemset = {1,3,5,7,8,10,12,15,17,19,21,22,24,27,29,30,32,34,36,39,41,42,44,46,48,50,53,55,57,59,60,62,64,66}, class = 1},
record {itemset = {1,2,4,6,8,10,12,15,17,18,21,22,24,27,29,30,32,34,36,39,41,43,45,47,49,50,53,55,57,59,61,63,64,66}, class = 1},
record {itemset = {1,3,5,6,8,10,12,15,16,18,21,23,25,27,28,30,32,35,36,39,41,43,45,47,49,50,53,55,57,59,61,62,64,66}, class = 1},
record {itemset = {1,3,5,7,9,11,13,15,17,18,21,22,24,27,28,30,32,34,36,39,41,43,45,46,48,50,53,55,57,58,60,62,64,66}, class = 1},
record {itemset = {1,3,5,7,8,10,12,15,16,18,21,22,24,27,29,30,32,34,36,38,40,42,44,46,48,50,53,55,57,59,61,63,65,66}, class = 1},
record {itemset = {1,3,5,6,8,10,12,15,17,18,20,22,24,27,28,30,32,34,36,39,40,42,44,46,48,50,53,55,56,58,60,62,64,67}, class = 1},
record {itemset = {1,3,5,6,8,10,12,15,16,19,20,22,24,26,29,30,32,34,36,39,40,42,44,46,48,50,53,54,56,58,60,62,64,66}, class = 1},
record {itemset = {0,2,4,6,8,10,12,14,17,19,21,22,24,27,28,30,32,34,36,39,41,42,44,46,48,50,52,54,56,58,60,62,64,66}, class = 0},
record {itemset = {0,2,4,6,8,10,12,15,17,18,21,23,25,26,29,31,33,34,36,39,41,43,45,46,48,50,53,55,57,59,61,62,64,66}, class = 0},
record {itemset = {1,2,4,6,8,10,12,15,17,18,20,22,24,27,28,30,32,34,36,39,41,43,44,46,48,50,52,54,56,58,60,62,64,66}, class = 1},
record {itemset = {1,3,5,7,8,10,12,15,17,18,20,22,24,27,28,30,32,34,36,39,41,42,44,46,48,50,53,55,57,59,60,62,64,66}, class = 1},
record {itemset = {0,2,4,6,8,10,12,14,16,19,20,22,24,27,28,30,32,34,36,38,40,42,44,46,48,50,52,54,56,58,60,62,64,66}, class = 1},
record {itemset = {0,2,4,6,8,10,12,15,16,18,21,23,24,27,28,30,32,34,36,39,41,42,44,46,48,50,53,55,57,58,60,62,64,66}, class = 1},
record {itemset = {1,3,5,7,9,10,12,15,16,19,21,23,25,27,29,30,33,34,36,38,40,42,44,46,48,50,53,55,57,58,60,62,64,66}, class = 0},
record {itemset = {1,3,5,7,9,11,13,14,17,18,21,22,24,27,29,30,33,34,36,39,41,43,45,47,48,50,53,55,57,58,60,62,64,66}, class = 1},
record {itemset = {1,3,5,7,9,11,13,15,16,18,21,22,24,26,29,30,32,34,36,39,41,43,45,46,48,50,53,54,56,58,60,62,64,66}, class = 0},
record {itemset = {1,3,5,7,9,11,12,15,16,19,21,23,24,27,28,30,32,34,36,39,41,43,44,46,48,50,53,55,57,59,60,62,64,66}, class = 1},
record {itemset = {1,3,5,6,8,10,12,15,16,19,21,23,24,27,29,30,32,34,36,39,41,43,45,47,49,50,53,55,57,59,61,62,64,66}, class = 1},
record {itemset = {1,3,5,7,8,10,12,14,17,19,21,23,25,27,28,30,32,34,36,39,40,42,44,46,48,50,53,55,57,58,60,62,64,66}, class = 1},
record {itemset = {0,2,4,6,8,10,12,14,16,18,20,22,24,27,29,30,32,34,36,38,40,42,44,46,48,50,53,54,56,58,60,62,64,66}, class = 1},
record {itemset = {1,3,4,6,8,10,12,15,17,18,21,22,24,27,28,30,32,34,36,39,41,42,44,46,48,50,53,55,57,59,61,62,64,66}, class = 0},
record {itemset = {1,3,5,6,8,10,12,15,17,18,21,22,24,27,28,30,33,34,36,38,40,42,44,46,48,50,53,54,56,58,60,62,64,66}, class = 1},
record {itemset = {0,2,4,6,8,10,12,15,17,18,21,23,25,27,28,31,32,34,36,39,41,43,45,46,48,50,53,55,57,59,61,63,64,66}, class = 0},
record {itemset = {0,2,4,6,8,10,12,14,16,18,21,23,25,26,29,31,33,34,36,39,41,43,45,47,49,50,53,55,57,59,60,62,64,66}, class = 1},
record {itemset = {1,3,5,7,8,10,12,15,16,18,20,22,24,27,28,30,32,34,36,39,41,43,44,46,48,50,52,54,56,58,60,62,64,66}, class = 0},
record {itemset = {1,3,5,7,9,11,13,15,17,18,21,23,24,27,29,31,33,35,36,38,40,42,44,46,48,50,53,55,57,58,60,62,64,67}, class = 1},
record {itemset = {1,3,5,7,9,11,12,15,16,19,20,22,24,27,28,30,32,34,36,39,40,42,44,46,48,50,53,55,57,58,60,62,64,66}, class = 1},
record {itemset = {1,3,4,6,8,10,12,15,17,18,20,22,24,27,28,30,32,34,36,39,41,43,44,46,48,50,53,55,57,59,61,62,64,66}, class = 1},
record {itemset = {1,3,5,7,9,11,13,15,16,18,21,22,24,27,28,30,32,34,36,39,40,42,44,46,48,50,52,54,56,58,60,62,64,66}, class = 1},
record {itemset = {1,2,4,6,8,10,12,15,17,18,21,23,24,27,28,30,32,34,36,39,40,42,44,46,48,50,53,55,57,59,61,63,64,66}, class = 1},
record {itemset = {1,3,5,6,8,10,12,15,16,18,20,22,24,27,29,30,33,34,36,38,40,42,44,46,48,50,53,55,57,59,61,62,64,66}, class = 1},
record {itemset = {1,2,4,6,8,10,12,14,17,18,21,23,24,27,29,30,32,34,36,39,41,43,45,47,48,50,53,55,57,59,61,63,65,66}, class = 1},
record {itemset = {1,3,4,6,8,10,12,15,16,18,20,22,24,27,28,31,32,34,36,39,41,42,44,46,48,50,53,55,56,58,60,62,64,66}, class = 1},
record {itemset = {1,3,5,6,8,10,12,15,17,19,21,23,25,27,28,30,33,34,36,39,40,42,44,46,48,50,53,55,57,59,60,62,64,66}, class = 0},
record {itemset = {1,3,5,6,8,10,12,15,16,18,20,22,24,27,28,30,32,34,36,39,41,42,44,46,48,50,53,55,57,59,60,62,64,66}, class = 1},
record {itemset = {1,3,5,6,8,10,12,15,17,18,20,22,24,27,28,30,32,34,36,39,41,43,44,46,48,50,52,54,56,58,60,62,64,66}, class = 1},
record {itemset = {1,3,5,7,8,10,12,15,17,18,20,22,24,27,28,30,32,34,36,38,40,42,44,46,48,50,53,55,57,59,61,63,64,66}, class = 1},
record {itemset = {1,3,5,7,8,10,12,15,17,19,21,22,24,27,29,31,32,34,36,39,41,43,45,46,48,50,53,54,56,58,60,62,64,66}, class = 1},
record {itemset = {1,2,4,6,8,10,12,15,17,18,21,22,24,27,28,30,32,34,36,39,40,42,44,46,48,50,53,55,57,59,61,62,64,66}, class = 1},
record {itemset = {1,3,5,6,8,10,12,15,16,18,21,23,25,27,28,30,32,34,36,39,41,42,44,46,48,50,53,55,57,59,60,62,64,66}, class = 1},
record {itemset = {1,2,4,6,8,10,12,15,17,19,20,22,24,27,28,30,32,34,36,39,40,42,44,46,48,50,53,55,56,58,60,62,64,66}, class = 1},
record {itemset = {1,3,5,7,9,11,13,15,17,19,21,23,24,26,29,30,32,34,36,39,41,43,44,46,48,50,53,55,56,58,60,62,64,66}, class = 1},
record {itemset = {1,3,5,7,9,10,12,14,16,18,21,23,24,27,28,31,32,34,36,39,41,43,44,46,48,50,53,55,57,59,61,62,64,66}, class = 1},
record {itemset = {1,3,5,6,8,10,12,15,17,18,20,22,24,27,28,30,32,34,36,39,40,42,44,46,48,50,53,55,57,59,60,62,64,66}, class = 1},
record {itemset = {1,2,4,6,8,10,12,15,17,18,20,22,24,27,28,30,32,34,36,39,40,42,44,46,48,50,53,55,57,59,60,62,64,66}, class = 1},
record {itemset = {1,2,4,6,8,10,12,15,17,18,21,23,25,27,28,30,33,34,37,39,41,43,45,47,49,51,53,55,57,58,60,62,64,66}, class = 1},
record {itemset = {1,3,4,6,8,10,12,15,16,18,20,22,24,26,29,31,32,34,36,39,40,42,44,46,48,50,53,55,56,58,60,62,64,66}, class = 1},
record {itemset = {1,3,5,7,9,10,12,15,17,18,21,23,24,27,28,30,32,34,36,39,41,42,44,46,48,50,53,55,56,58,60,62,64,66}, class = 1},
record {itemset = {0,2,4,6,8,10,12,15,17,18,20,22,24,27,28,30,32,34,36,39,41,42,44,46,48,50,53,55,56,58,60,62,64,66}, class = 1},
record {itemset = {1,3,5,7,9,11,13,15,16,18,20,22,24,27,28,30,32,34,36,39,40,42,44,46,48,50,53,55,56,58,60,62,64,66}, class = 1},
record {itemset = {1,3,5,7,9,11,13,15,17,18,21,23,25,27,28,30,33,35,36,39,41,43,45,47,49,51,53,55,57,58,60,62,64,66}, class = 0},
record {itemset = {1,3,5,6,8,10,12,15,17,18,21,22,24,27,28,30,32,34,36,39,41,43,44,46,48,50,52,54,56,58,60,62,64,66}, class = 1},
record {itemset = {1,3,5,7,8,10,12,15,16,18,21,23,24,27,28,30,32,34,36,39,41,43,45,47,48,50,53,55,57,59,60,62,64,66}, class = 0},
record {itemset = {0,2,4,6,8,10,12,15,17,18,20,22,24,27,28,30,32,34,36,39,41,42,44,46,48,50,53,55,56,58,60,62,64,66}, class = 0},
record {itemset = {1,3,4,6,8,10,12,15,16,18,21,23,24,26,29,30,33,34,36,39,41,43,45,47,49,50,53,55,57,59,61,63,65,66}, class = 1},
record {itemset = {1,3,4,6,8,10,12,15,16,18,21,23,25,27,29,30,32,34,36,39,41,43,44,46,48,50,53,55,56,58,60,62,64,66}, class = 0},
record {itemset = {1,3,5,7,9,11,12,15,17,18,20,22,24,27,28,30,32,34,36,39,41,43,45,47,48,50,53,55,57,59,61,62,64,66}, class = 1},
record {itemset = {1,2,4,6,8,10,12,15,16,19,21,23,24,27,28,30,32,34,36,39,41,43,44,46,48,50,53,55,56,58,60,62,64,66}, class = 1},
record {itemset = {1,3,5,7,9,11,13,15,17,18,21,22,24,26,29,31,33,34,36,39,41,43,45,47,49,50,53,55,57,59,61,63,65,66}, class = 1},
record {itemset = {1,3,4,6,8,10,12,14,16,19,20,22,24,27,29,30,32,34,36,38,40,42,44,46,48,50,53,54,56,58,60,62,64,66}, class = 1},
record {itemset = {1,3,4,6,8,10,12,15,16,18,21,22,24,26,29,30,33,34,36,39,41,43,44,46,48,50,53,55,57,58,60,62,64,66}, class = 1},
record {itemset = {1,2,4,6,8,10,12,15,17,18,20,22,24,27,28,30,32,34,36,39,40,42,44,46,48,50,53,54,56,58,60,62,64,66}, class = 1},
record {itemset = {0,2,4,6,8,10,12,15,17,18,21,23,25,27,28,30,32,34,36,39,41,42,44,46,48,50,52,54,56,58,60,62,64,66}, class = 1},
record {itemset = {1,3,4,6,8,10,12,15,17,18,20,22,24,27,28,30,32,34,36,39,40,42,44,46,48,50,53,55,57,59,61,63,65,66}, class = 1},
record {itemset = {1,2,4,6,8,10,12,15,16,18,20,22,24,27,28,30,32,34,36,39,40,42,44,46,48,50,53,54,56,58,60,62,64,66}, class = 1},
record {itemset = {1,3,5,7,9,11,13,14,17,18,21,23,24,27,29,30,33,34,36,39,41,43,45,46,48,50,53,55,57,59,61,63,64,66}, class = 1},
record {itemset = {1,2,4,6,8,10,12,15,16,18,21,23,25,27,29,30,32,34,36,39,41,43,45,47,48,50,53,55,57,59,61,63,64,66}, class = 0},
record {itemset = {1,3,5,7,8,10,12,15,16,18,21,23,24,27,28,31,32,34,37,39,41,42,44,46,48,50,53,55,57,58,60,62,64,67}, class = 1},
record {itemset = {1,2,4,6,8,10,12,15,17,18,21,23,25,27,29,30,33,35,37,39,41,43,45,47,49,50,53,55,57,59,60,62,64,67}, class = 1},
record {itemset = {1,3,5,6,8,10,12,15,16,18,21,23,25,27,29,30,33,35,37,39,41,43,45,46,48,50,52,54,56,58,60,62,64,67}, class = 1},
record {itemset = {1,3,5,6,8,10,12,15,16,18,21,23,25,26,29,30,32,34,36,38,40,42,44,46,48,50,52,54,56,58,60,62,64,67}, class = 0},
record {itemset = {1,3,5,7,9,11,12,14,16,18,21,22,24,26,29,31,33,34,36,39,41,42,44,46,48,50,53,55,57,59,61,63,64,67}, class = 1},
record {itemset = {1,3,5,7,8,10,12,15,16,18,21,23,25,27,28,31,33,34,37,39,41,43,45,47,49,51,53,55,57,58,60,62,64,67}, class = 0},
record {itemset = {1,3,5,7,9,11,12,15,16,18,20,22,24,27,28,30,32,34,36,39,41,43,45,47,48,50,53,55,57,59,60,62,64,67}, class = 0},
record {itemset = {1,3,5,7,9,11,13,15,16,18,21,23,24,27,29,31,33,34,36,39,41,43,45,47,48,50,53,55,57,59,61,63,64,67}, class = 1},
record {itemset = {1,3,5,7,8,10,12,15,16,19,21,23,25,26,29,30,32,34,36,38,40,42,44,46,48,50,53,55,57,59,60,62,64,67}, class = 1},
record {itemset = {1,2,4,6,8,10,12,15,16,18,21,23,24,27,29,30,33,34,36,39,41,42,44,46,48,50,53,55,57,59,61,63,64,67}, class = 1},
record {itemset = {1,3,5,7,8,10,12,15,16,18,21,23,24,26,29,30,33,34,36,39,41,43,45,47,49,51,53,55,57,59,60,62,64,67}, class = 1},
record {itemset = {1,3,5,7,9,10,12,15,17,18,20,22,24,27,28,30,33,34,37,39,41,43,45,47,49,50,52,54,56,58,60,62,64,67}, class = 0},
record {itemset = {1,3,5,7,9,10,12,15,16,18,21,23,24,27,29,30,33,35,37,39,41,43,45,47,49,51,53,55,57,59,61,63,64,67}, class = 0},
record {itemset = {0,2,4,6,8,10,12,15,17,18,20,22,24,27,28,30,32,34,36,39,40,42,44,46,48,50,53,54,56,58,60,62,64,67}, class = 0},
record {itemset = {0,2,4,6,8,10,12,15,16,18,21,22,24,27,29,30,32,34,36,39,41,43,45,47,49,50,53,55,57,59,61,63,65,67}, class = 0},
record {itemset = {1,3,5,7,9,11,12,15,16,18,21,23,25,27,29,31,33,34,37,39,41,43,45,47,49,51,53,55,57,59,61,63,65,67}, class = 0},
record {itemset = {1,3,5,7,9,10,12,15,17,18,21,23,24,27,29,30,32,35,37,39,41,43,45,47,48,50,52,54,56,58,60,62,64,67}, class = 1},
record {itemset = {0,2,4,6,8,10,12,15,17,18,20,22,24,27,28,30,32,34,36,38,40,42,44,46,48,50,53,55,56,58,60,62,64,67}, class = 1},
record {itemset = {1,3,5,7,9,10,12,15,16,18,21,23,25,27,28,30,32,34,36,39,41,43,45,47,49,50,53,55,57,59,61,63,65,67}, class = 1},
record {itemset = {1,3,5,7,9,11,12,15,16,19,20,22,24,26,29,30,32,34,36,39,41,43,44,46,48,50,53,55,57,59,61,63,65,67}, class = 1},
record {itemset = {1,3,4,6,8,10,12,15,16,18,21,23,24,27,28,30,32,35,36,39,40,42,44,46,48,50,53,55,57,59,61,62,64,67}, class = 1},
record {itemset = {0,2,4,6,8,10,12,15,17,18,20,22,24,27,29,31,32,34,36,39,40,42,44,46,48,50,53,54,56,58,60,62,64,67}, class = 1},
record {itemset = {1,3,5,7,8,10,12,15,16,19,21,23,24,27,28,30,33,34,36,38,40,42,44,46,48,50,53,55,57,59,60,62,64,67}, class = 0},
record {itemset = {1,3,5,7,9,11,12,15,16,18,21,22,24,27,28,30,32,34,36,39,41,43,44,46,48,50,53,54,56,58,60,62,64,67}, class = 1},
record {itemset = {1,3,5,7,9,10,12,15,16,18,21,22,24,27,29,31,32,34,36,39,41,43,45,46,48,50,53,55,57,59,60,62,64,66}, class = 1},
record {itemset = {1,3,4,6,8,10,12,15,16,18,20,22,24,27,28,30,32,34,36,39,41,43,45,46,48,50,53,55,57,59,61,62,64,67}, class = 1},
record {itemset = {1,3,5,7,9,11,13,14,17,18,21,22,24,27,28,30,32,34,36,39,41,43,45,47,49,51,53,55,57,59,61,63,64,67}, class = 0},
record {itemset = {0,2,4,6,8,10,12,15,16,18,21,22,24,27,28,30,32,34,36,39,41,43,44,46,48,50,53,55,56,58,60,62,64,67}, class = 1},
record {itemset = {1,3,5,7,9,11,12,15,17,18,20,22,24,27,28,30,32,34,36,39,41,43,44,46,48,50,53,55,57,59,61,62,64,67}, class = 1},
record {itemset = {1,3,5,7,9,11,12,15,17,18,21,22,24,26,29,30,32,34,36,39,41,43,45,47,49,51,53,54,56,58,60,62,64,67}, class = 0},
record {itemset = {1,3,5,7,9,11,13,15,16,18,21,23,25,26,29,30,33,34,36,39,41,43,45,47,49,51,53,55,57,59,61,63,64,67}, class = 0},
record {itemset = {0,2,4,6,8,10,12,15,16,18,21,23,25,27,28,30,33,35,36,39,41,43,44,46,48,50,53,55,57,59,61,63,64,67}, class = 1},
record {itemset = {1,3,5,7,8,10,12,15,17,18,20,22,24,27,28,31,32,34,36,39,41,43,45,47,48,50,53,55,56,58,60,62,64,67}, class = 1},
record {itemset = {1,3,5,6,8,10,12,15,16,18,21,22,24,27,28,30,33,34,36,39,41,42,44,46,48,50,53,55,57,59,61,63,65,67}, class = 0},
record {itemset = {1,3,5,7,9,11,12,15,17,18,20,22,24,27,29,31,33,34,36,39,41,43,44,46,48,50,53,55,57,59,61,62,64,67}, class = 1},
record {itemset = {1,3,4,6,8,10,12,14,17,18,21,23,25,26,29,30,33,34,36,39,40,42,44,46,48,50,53,54,56,58,60,62,64,67}, class = 1},
record {itemset = {1,3,5,7,9,11,12,15,17,18,21,22,24,27,29,31,32,35,37,39,41,43,45,47,49,50,53,55,57,59,61,62,64,67}, class = 1},
record {itemset = {1,3,5,7,9,11,12,15,16,18,21,23,24,27,28,30,32,35,36,39,41,43,45,46,48,50,53,55,57,59,61,62,64,67}, class = 1},
record {itemset = {1,3,5,7,9,11,13,15,16,18,21,23,24,27,28,30,33,35,36,39,41,43,45,47,49,51,53,55,57,58,60,62,64,67}, class = 0},
record {itemset = {1,3,5,7,9,11,12,15,17,18,20,22,24,27,28,30,32,34,36,39,41,43,44,46,48,50,53,54,56,58,60,62,64,67}, class = 1},
record {itemset = {1,2,4,6,8,10,12,15,16,18,21,23,25,27,28,31,32,34,36,39,41,43,45,47,49,51,53,55,57,59,61,62,64,67}, class = 0},
record {itemset = {1,3,5,7,9,10,12,15,17,18,21,23,25,27,29,30,33,34,36,39,41,43,45,47,49,50,53,55,57,59,61,63,65,67}, class = 0},
record {itemset = {1,3,5,7,9,11,13,15,17,19,21,22,24,27,29,30,32,34,36,39,41,43,44,46,48,50,53,55,57,58,60,62,64,67}, class = 0},
record {itemset = {1,3,5,6,8,10,12,15,16,18,20,22,24,27,29,30,32,34,36,38,40,42,44,46,48,50,53,55,57,58,60,62,64,67}, class = 1},
record {itemset = {0,2,4,6,8,10,12,15,17,18,21,22,24,26,29,31,33,35,37,39,41,43,45,46,48,50,53,55,57,59,61,63,65,67}, class = 1},
record {itemset = {1,3,5,7,9,11,12,15,17,18,20,22,24,26,29,30,33,34,36,39,41,42,44,46,48,50,53,55,56,58,60,62,64,67}, class = 0},
record {itemset = {1,3,5,6,8,10,12,15,17,18,20,22,24,27,29,30,33,34,37,39,41,43,45,47,48,50,53,55,57,59,61,63,64,67}, class = 0},
record {itemset = {1,3,5,7,9,10,12,15,17,18,21,23,24,27,29,30,33,35,37,39,41,43,44,46,48,50,53,54,56,58,60,62,64,67}, class = 1},
record {itemset = {1,3,5,7,9,10,12,15,17,19,20,22,24,27,28,30,32,34,36,39,41,43,45,46,48,50,53,55,56,58,60,62,64,67}, class = 0},
record {itemset = {1,3,4,6,8,10,12,15,16,18,21,23,25,26,29,30,33,34,37,39,41,43,45,47,48,50,53,55,57,59,60,62,64,67}, class = 1},
record {itemset = {1,3,5,7,9,11,12,15,17,18,21,22,24,27,29,31,33,34,37,39,41,43,44,46,48,50,52,54,56,58,60,62,64,67}, class = 1},
record {itemset = {1,3,5,7,9,10,12,15,16,18,21,23,24,27,28,31,33,34,36,39,41,43,45,47,48,50,53,55,57,59,61,62,64,67}, class = 0},
record {itemset = {1,3,5,7,9,10,12,15,17,18,21,23,25,27,28,30,33,35,36,39,41,43,45,47,49,50,53,55,57,59,61,63,64,67}, class = 1},
record {itemset = {1,2,4,6,8,10,12,15,16,18,21,22,24,27,28,30,32,34,36,39,41,43,45,46,48,50,53,55,57,59,61,63,65,67}, class = 1},
record {itemset = {1,3,5,7,8,10,12,15,17,18,21,22,24,27,29,31,33,34,37,39,41,43,45,47,49,51,53,55,57,59,61,63,64,67}, class = 1},
record {itemset = {1,3,4,6,8,10,12,15,17,18,20,22,24,27,28,30,32,34,36,38,40,42,44,46,48,50,53,54,56,58,60,62,64,67}, class = 1},
record {itemset = {1,3,5,7,9,10,12,15,17,18,21,23,25,27,28,30,33,35,37,39,41,43,45,47,49,51,53,55,57,59,61,63,65,67}, class = 1},
record {itemset = {1,3,5,7,8,10,12,15,17,18,21,22,24,27,29,30,32,34,36,39,41,42,44,46,48,50,53,55,57,59,61,63,64,67}, class = 1},
record {itemset = {1,3,5,7,9,11,13,15,16,18,21,23,24,26,29,30,33,34,36,39,41,42,44,46,48,50,52,54,56,58,60,62,64,67}, class = 0},
record {itemset = {1,3,5,7,9,11,12,14,16,18,21,22,24,27,28,31,33,34,37,39,41,43,45,47,48,50,52,54,56,58,60,62,64,67}, class = 1},
record {itemset = {1,3,5,7,8,10,12,15,17,18,21,22,24,27,28,31,33,35,36,39,41,43,45,46,48,50,52,54,56,58,60,62,64,67}, class = 0},
)
letting utility_values be [2, 0, 0, 0, 2, 0, 3, 0, 3, 4, 2, 1, 3, 5, 4, 3, 0, 2, 0, 3, 4, 3, 4, 3, 2, 1, 0, 5, 2, 1, 1, 0, 4, 4, 4, 1, 2, 0, 4, 3, 2, 4, 0, 0, 5, 4, 2, 3, 0, 3, 1, 1, 4, 1, 0, 5, 2, 2, 2, 4, 4, 0, 3, 2, 1, 2, 1, 3; int(0..67)]
letting cost_values be [3, 1, 1, 2, 5, 3, 2, 1, 1, 4, 0, 2, 4, 3, 5, 3, 1, 5, 3, 5, 0, 1, 4, 5, 1, 4, 0, 0, 3, 0, 0, 0, 3, 5, 0, 5, 4, 1, 4, 5, 4, 0, 4, 0, 0, 0, 1, 5, 1, 1, 1, 2, 5, 5, 2, 5, 1, 0, 4, 1, 4, 4, 5, 2, 3, 2, 2, 1; int(0..67)]
letting max_cost be 25
letting min_utility be 14
